
Gurobi 11.0.1 (win64) logging started Thu May 16 18:26:54 2024

Set parameter LogFile to value "output/solver_log11.txt"
Gurobi Optimizer version 11.0.1 build v11.0.1rc0 (win64 - Windows 11.0 (22631.2))

CPU model: 11th Gen Intel(R) Core(TM) i7-1165G7 @ 2.80GHz, instruction set [SSE2|AVX|AVX2|AVX512]
Thread count: 4 physical cores, 8 logical processors, using up to 8 threads

Optimize a model with 4325 rows, 1039 columns and 79333 nonzeros
Model fingerprint: 0x3d1f8983
Variable types: 568 continuous, 471 integer (471 binary)
Coefficient statistics:
  Matrix range     [4e-01, 1e+05]
  Objective range  [1e+00, 1e+02]
  Bounds range     [1e+00, 1e+00]
  RHS range        [1e-02, 1e+05]

User MIP start produced solution with objective 40244.8 (0.01s)
User MIP start produced solution with objective 40244.8 (0.01s)
Loaded user MIP start with objective 40244.8

Presolve removed 475 rows and 281 columns
Presolve time: 0.10s
Presolved: 3850 rows, 758 columns, 72678 nonzeros
Variable types: 524 continuous, 234 integer (230 binary)

Root relaxation: objective 4.806197e+04, 1949 iterations, 0.16 seconds (0.32 work units)

    Nodes    |    Current Node    |     Objective Bounds      |     Work
 Expl Unexpl |  Obj  Depth IntInf | Incumbent    BestBd   Gap | It/Node Time

     0     0 48061.9693    0   36 40244.7567 48061.9693  19.4%     -    0s
     0     0 46756.4423    0   44 40244.7567 46756.4423  16.2%     -    0s
     0     0 46335.0998    0   38 40244.7567 46335.0998  15.1%     -    0s
     0     0 46335.0998    0   39 40244.7567 46335.0998  15.1%     -    0s
     0     0 46317.7636    0   41 40244.7567 46317.7636  15.1%     -    0s
     0     0 46220.6942    0   49 40244.7567 46220.6942  14.8%     -    0s
     0     0 46220.6942    0   47 40244.7567 46220.6942  14.8%     -    0s
     0     0 46220.6942    0   47 40244.7567 46220.6942  14.8%     -    0s
     0     0 45702.7391    0   52 40244.7567 45702.7391  13.6%     -    1s
     0     0 45672.5073    0   54 40244.7567 45672.5073  13.5%     -    1s
     0     0 45672.5073    0   53 40244.7567 45672.5073  13.5%     -    1s
     0     0 45672.5073    0   54 40244.7567 45672.5073  13.5%     -    1s
     0     0 45141.1507    0   46 40244.7567 45141.1507  12.2%     -    1s
     0     0 45048.8084    0   61 40244.7567 45048.8084  11.9%     -    1s
     0     0 45046.3574    0   56 40244.7567 45046.3574  11.9%     -    1s
     0     0 45046.2011    0   54 40244.7567 45046.2011  11.9%     -    1s
     0     0 45044.3154    0   56 40244.7567 45044.3154  11.9%     -    1s
     0     0 45043.7762    0   59 40244.7567 45043.7762  11.9%     -    1s
     0     0 45041.9707    0   57 40244.7567 45041.9707  11.9%     -    1s
     0     0 44036.5433    0   60 40244.7567 44036.5433  9.42%     -    1s
     0     0 44036.5433    0   52 40244.7567 44036.5433  9.42%     -    2s
     0     0 44036.5433    0   59 40244.7567 44036.5433  9.42%     -    2s
     0     0 44036.5433    0   59 40244.7567 44036.5433  9.42%     -    2s
     0     0 44036.5433    0   60 40244.7567 44036.5433  9.42%     -    2s
     0     0 44036.5433    0   59 40244.7567 44036.5433  9.42%     -    2s
     0     0 44036.5433    0   59 40244.7567 44036.5433  9.42%     -    2s
     0     2 44036.5433    0   59 40244.7567 44036.5433  9.42%     -    2s
   213   143 41173.1444   13   23 40244.7567 42271.6198  5.04%   323    5s
   909   304 40628.9149   17   22 40244.7567 41427.1931  2.94%   298   11s
H  975   310                    40244.910982 41427.1931  2.94%   297   12s
  1380   289 40346.7600   11   15 40244.9110 40964.5633  1.79%   303   15s
* 2036   596              96    40246.854223 40420.3603  0.43%   252   17s
* 2138   782             118    40247.001020 40323.7874  0.19%   243   17s
  3235  1440 40257.7029   29   59 40247.0010 40257.7885  0.03%   178   21s
  3275  1456 40257.7885   16   32 40247.0010 40257.7885  0.03%   184   25s
H 3470  1440                    40248.207868 40257.7885  0.02%   180   26s
H 3829  1534                    40248.249879 40257.5758  0.02%   167   29s
  3951  1824 40255.5732   48   12 40248.2499 40257.5758  0.02%   164   31s
* 4410  1539              62    40250.174476 40257.5758  0.02%   151   31s
* 4488  1623              77    40250.185475 40257.5758  0.02%   149   32s
H 9402   813                    40251.802009 40257.5693  0.01%  73.0   33s
H 9437   658                    40253.440678 40257.5693  0.01%  72.8   34s
  9444   737     cutoff 1721      40253.4407 40257.5610  0.01%  72.7   35s
 10728  1648 40255.3580   43   15 40253.4407 40257.5405  0.01%  69.1   40s
*10909  1579              71    40253.704644 40257.5309  0.01%  68.7   40s
*10958  1443              74    40254.391772 40257.5309  0.01%  68.7   40s

Cutting planes:
  Gomory: 2
  Implied bound: 6
  Projected implied bound: 4
  MIR: 21
  Flow cover: 30
  RLT: 4
  Relax-and-lift: 3
  BQP: 1

Explored 11070 nodes (763577 simplex iterations) in 40.44 seconds (83.70 work units)
Thread count was 8 (of 8 available processors)

Solution count 10: 40254.4 40254.4 40253.7 ... 40247

Optimal solution found (tolerance 1.00e-04)
Best objective 4.025439177222e+04, best bound 4.025753091258e+04, gap 0.0078%
